NAME           
ROWS
 N  obj     
 E  c1      
 E  c2      
 E  c3      
 E  c4      
 E  c5      
 E  c6      
COLUMNS
    s01       obj                  1   c1                   1
    s02       obj                 -1   c1                   1
    s11       obj                  1   c2                   1
    s12       obj                 -1   c2                   1
    s21       obj                  1   c3                   1
    s22       obj                 -1   c3                   1
    s31       obj                  1   c4                   1
    s32       obj                 -1   c4                   1
    s41       obj                  1   c5                   1
    s42       obj                 -1   c5                   1
    s51       obj                  1   c6                   1
    s52       obj                 -1   c6                   1
    MARK0000  'MARKER'                 'INTORG'
    x0        c1                  25   c2                  97
    x0        c3                  95   c4                   1
    x0        c5                   3   c6                  69
    x1        c1                  35   c2                  64
    x1        c3                  71   c4                  27
    x1        c5                  94   c6                  72
    x2        c1                  14   c2                  24
    x2        c3                  19   c4                  46
    x2        c5                  51   c6                  94
    x3        c1                  76   c2                  63
    x3        c3                  15   c4                  48
    x3        c5                   4   c6                  56
    x4        c1                  58   c2                  58
    x4        c3                  66   c4                  66
    x4        c5                  25   c6                  90
    x5        c1                  10   c2                  45
    x5        c3                  76   c4                  58
    x5        c5                  46   c6                  20
    x6        c1                  20   c2                  20
    x6        c3                   4   c4                  52
    x6        c5                  30   c6                  56
    x7        c1                  51   c2                  71
    x7        c3                  50   c4                   6
    x7        c5                   2   c6                  50
    x8        c1                  58   c2                  32
    x8        c3                  50   c4                  14
    x8        c5                  89   c6                  79
    x9        c1                   1   c2                   7
    x9        c3                  97   c4                  26
    x9        c5                  65   c6                  59
    x10       c1                  35   c2                  28
    x10       c3                  83   c4                  55
    x10       c5                  28   c6                  36
    x11       c1                  40   c2                  77
    x11       c3                  14   c4                  61
    x11       c5                  46   c6                  24
    x12       c1                  65   c2                  95
    x12       c3                  27   c4                  60
    x12       c5                  36   c6                  42
    x13       c1                  59   c2                  96
    x13       c3                  14   c4                   3
    x13       c5                  53   c6                   9
    x14       c1                  24   c2                  70
    x14       c3                  34   c4                  33
    x14       c5                  30   c6                  29
    x15       c1                  44   c2                  22
    x15       c3                   9   c4                  99
    x15       c5                  73   c6                  68
    x16       c1                   1   c2                  93
    x16       c3                  99   c4                  36
    x16       c5                  37   c6                  10
    x17       c1                  93   c2                  32
    x17       c3                  62   c4                  55
    x17       c5                  60   c6                   1
    x18       c1                  24   c2                  17
    x18       c3                  92   c4                  70
    x18       c5                  21   c6                  44
    x19       c1                  68   c2                  56
    x19       c3                  39   c4                  73
    x19       c5                  41   c6                  74
    x20       c1                  38   c2                  74
    x20       c3                  56   c4                  70
    x20       c5                   2   c6                  61
    x21       c1                  64   c2                  62
    x21       c3                  53   c4                  38
    x21       c5                  21   c6                  37
    x22       c1                  93   c2                  94
    x22       c3                  91   c4                  66
    x22       c5                  93   c6                  71
    x23       c1                  14   c2                   9
    x23       c3                  81   c4                  39
    x23       c5                  82   c6                  63
    x24       c1                  83   c2                  92
    x24       c3                  46   c4                  43
    x24       c5                  16   c6                  44
    x25       c1                   6   c2                  90
    x25       c3                  94   c4                  63
    x25       c5                  97   c6                  77
    x26       c1                  58   c2                  40
    x26       c3                  76   c4                  88
    x26       c5                  75   c6                  57
    x27       c1                  14   c2                  45
    x27       c3                  53   c4                  47
    x27       c5                  50   c6                  46
    x28       c1                  71   c2                  84
    x28       c3                  58   c4                  18
    x28       c5                  13   c6                  51
    x29       c1                  17   c2                  62
    x29       c3                  23   c4                  73
    x29       c5                  43   c6                  43
    x30       c1                  18   c2                  62
    x30       c3                  15   c4                  40
    x30       c5                  45   c6                   4
    x31       c1                   8   c2                  34
    x31       c3                  63   c4                  91
    x31       c5                  64   c6                  85
    x32       c1                  57   c2                  21
    x32       c3                   2   c4                  96
    x32       c5                  78   c6                  59
    x33       c1                  48   c2                   2
    x33       c3                  31   c4                  49
    x33       c5                  78   c6                   7
    x34       c1                  35   c2                  75
    x34       c3                  55   c4                  13
    x34       c5                   6   c6                  25
    x35       c1                  13   c2                  42
    x35       c3                  71   c4                  27
    x35       c5                  35   c6                  46
    x36       c1                  47   c2                  75
    x36       c3                  97   c4                  22
    x36       c5                  72   c6                  25
    x37       c1                  46   c2                  29
    x37       c3                  71   c4                  71
    x37       c5                  31   c6                  70
    x38       c1                   8   c2                   4
    x38       c3                  55   c4                  99
    x38       c5                  28   c6                  78
    x39       c1                  82   c2                  64
    x39       c3                   8   c4                  66
    x39       c5                  56   c6                  88
    x40       c1                  51   c2                  80
    x40       c3                  57   c4                  57
    x40       c5                  60   c6                  20
    x41       c1                  49   c2                  17
    x41       c3                  14   c4                   1
    x41       c5                  23   c6                  40
    x42       c1                  85   c2                  55
    x42       c3                  76   c4                  54
    x42       c5                  70   c6                  40
    x43       c1                  66   c2                  73
    x43       c3                   1   c4                  35
    x43       c5                  46   c6                  16
    x44       c1                  45   c2                  23
    x44       c3                  46   c4                  52
    x44       c5                  88   c6                   3
    x45       c1                  99   c2                  13
    x45       c3                  87   c4                  66
    x45       c5                  20   c6                   3
    x46       c1                  21   c2                  91
    x46       c3                  22   c4                  26
    x46       c5                  69   c6                   5
    x47       c1                  75   c2                  70
    x47       c3                  97   c4                   1
    x47       c5                  13   c6                  77
    x48       c1                  78   c2                  73
    x48       c3                  99   c4                  26
    x48       c5                  40   c6                  88
    x49       c1                  43   c2                  28
    x49       c3                  92   c4                  12
    x49       c5                  73   c6                  16
    MARK0001  'MARKER'                 'INTEND'
RHS
    rhs       c1                1116   c2                1325
    rhs       c3                1353   c4                1169
    rhs       c5                1160   c6                1163
BOUNDS
 FX bnd       s02                  0
 FX bnd       s12                  0
 FX bnd       s22                  0
 FX bnd       s32                  0
 FX bnd       s42                  0
 FX bnd       s52                  0
 UP bnd       x0                   1
 UP bnd       x1                   1
 UP bnd       x2                   1
 UP bnd       x3                   1
 UP bnd       x4                   1
 UP bnd       x5                   1
 UP bnd       x6                   1
 UP bnd       x7                   1
 UP bnd       x8                   1
 UP bnd       x9                   1
 UP bnd       x10                  1
 UP bnd       x11                  1
 UP bnd       x12                  1
 UP bnd       x13                  1
 UP bnd       x14                  1
 UP bnd       x15                  1
 UP bnd       x16                  1
 UP bnd       x17                  1
 UP bnd       x18                  1
 UP bnd       x19                  1
 UP bnd       x20                  1
 UP bnd       x21                  1
 UP bnd       x22                  1
 UP bnd       x23                  1
 UP bnd       x24                  1
 UP bnd       x25                  1
 UP bnd       x26                  1
 UP bnd       x27                  1
 UP bnd       x28                  1
 UP bnd       x29                  1
 UP bnd       x30                  1
 UP bnd       x31                  1
 UP bnd       x32                  1
 UP bnd       x33                  1
 UP bnd       x34                  1
 UP bnd       x35                  1
 UP bnd       x36                  1
 UP bnd       x37                  1
 UP bnd       x38                  1
 UP bnd       x39                  1
 UP bnd       x40                  1
 UP bnd       x41                  1
 UP bnd       x42                  1
 UP bnd       x43                  1
 UP bnd       x44                  1
 UP bnd       x45                  1
 UP bnd       x46                  1
 UP bnd       x47                  1
 UP bnd       x48                  1
 UP bnd       x49                  1
ENDATA
